c turning on binary mode checking
c parsing input formula with 202048 variables and 780985 clauses
c finished parsing, read 16733641 bytes from proof file
c detected empty clause; start verification via backward checking
c 3993 of 780985 clauses in core                            
c 4803 of 457527 lemmas in core using 19936 resolution steps
c 0 RAT lemmas in core; 174 redundant literals in core lemmas
s VERIFIED
c verification time: 1.871 seconds
